9161.0
1 0 1 1 1 0 1 1 1 1 
9 2 4 2 2 2 4 2 2 2 2 2 2 2 2 2 2 2 2 3 2 2 2 3 3 2 3 3 3 3 3 3 3 3 3 3 3 3 3 6 6 5 6 6 3 6 3 6 3 3 3 3 6 6 6 6 6 6 6 6 6 5 5 5 5 5 5 6 5 0 0 5 0 5 4 0 0 0 0 0 0 0 0 4 4 4 4 4 4 4 4 4 9 9 4 9 4 9 9 9 